
Gurobi 12.0.2 (win64) logging started Mon Nov  3 17:45:59 2025

Set parameter LogFile to value "resultados DATA_1_n10m05b2d2\instancia_3_log.txt"
Set parameter TimeLimit to value 1800
Gurobi Optimizer version 12.0.2 build v12.0.2rc0 (win64 - Windows 10.0 (19045.2))

CPU model: Intel(R) Core(TM) i5-6300U CPU @ 2.40GHz, instruction set [SSE2|AVX|AVX2]
Thread count: 2 physical cores, 4 logical processors, using up to 4 threads

Non-default parameters:
TimeLimit  1800

Optimize a model with 145 rows, 370 columns and 4164 nonzeros
Model fingerprint: 0xf72027a2
Variable types: 0 continuous, 370 integer (370 binary)
Coefficient statistics:
  Matrix range     [1e+00, 1e+00]
  Objective range  [2e-02, 1e-01]
  Bounds range     [1e+00, 1e+00]
  RHS range        [1e+00, 1e+01]
Found heuristic solution: objective 0.7040000
Presolve removed 20 rows and 238 columns
Presolve time: 0.02s
Presolved: 125 rows, 132 columns, 1200 nonzeros
Found heuristic solution: objective 0.4640000
Variable types: 0 continuous, 132 integer (132 binary)

Root relaxation: objective 9.680000e-01, 194 iterations, 0.01 seconds (0.00 work units)

    Nodes    |    Current Node    |     Objective Bounds      |     Work
 Expl Unexpl |  Obj  Depth IntInf | Incumbent    BestBd   Gap | It/Node Time

     0     0    0.96800    0   16    0.70400    0.96800  37.5%     -    0s
H    0     0                       0.7460000    0.96800  29.8%     -    0s
H    0     0                       0.9500000    0.96800  1.89%     -    0s
     0     0    0.96260    0   49    0.95000    0.96260  1.33%     -    0s
     0     0     cutoff    0         0.95000    0.95000  0.00%     -    0s

Cutting planes:
  Gomory: 10
  Zero half: 7

Explored 1 nodes (462 simplex iterations) in 0.11 seconds (0.02 work units)
Thread count was 4 (of 4 available processors)

Solution count 4: 0.95 0.746 0.704 0.464 
No other solutions better than 0.95

Optimal solution found (tolerance 1.00e-04)
Best objective 9.500000000000e-01, best bound 9.500000000000e-01, gap 0.0000%
